benchmarks_vrp/CMT5/min_c/CMT5_10.vrp
NAME: CMT5_10
TYPE: CVRP
COMMENT: 1291.29 - Cluster Nr.10
DIMENSION: 16
CAPACITY: 200
EDGE_WEIGHT_TYPE: EUC_2D
NODE_COORD_TYPE: TWOD_COORDS
NODE_COORD_SECTION: 
2 12 38
9 17 33
11 12 42
15 35 35
7 5 30
3 10 43
14 11 28
13 5 25
8 11 31
5 14 37
6 15 30
10 7 38
1 7 43
12 21 36
4 6 38
16 17 34
DEPOT_SECTION: 
15
-1
DEMAND_SECTION: 
9 41
12 19
6 26
10 28
5 11
15 0
2 5
13 23
7 2
3 9
8 7
16 3
14 6
4 16
1 27
11 21
EOF
