benchmarks_vrp/CMT5/min_c/CMT5_10.tour
NAME: CMT5_10 solution
TYPE: TOUR
TOUR_SECTION:
15 6 8 14 13 7 10 4 1 3 11 2 5 -1
15 12 16 9 -1
-1
EOF